width = 32;
num_plates = 27;
plates_x = [3, 3, 3, 3, 3, 3, 3, 3, 3, 3, 3, 3, 3, 3, 3, 3, 3, 3, 3, 4, 4, 4, 4, 4, 4, 4, 4];
plates_y = [3, 4, 5, 6, 7, 8, 9, 10, 11, 12, 13, 14, 15, 18, 22, 23, 24, 25, 27, 3, 4, 5, 6, 7, 10, 11, 18];